40 15 1
1 1 2 358
1 1 6 557
1 1 2 403
1 3 0 553 1 553 2 553
1 1 6 780
1 1 6 494
1 1 2 534
1 1 0 344
1 1 2 352
1 1 2 299
1 1 6 544
1 1 6 494
1 1 2 482
1 1 2 504
1 1 0 331
1 1 6 420
1 1 6 515
1 1 6 655
1 1 2 294
1 2 0 290 4 290
1 2 2 435 3 435
1 2 0 373 4 373
1 1 6 530
1 1 2 363
1 1 0 367
1 2 2 471 3 471
1 1 2 496
1 1 2 352
1 1 6 631
1 1 6 779
1 1 6 798
1 1 6 682
1 3 0 523 1 523 2 523
1 1 6 639
1 3 0 476 1 476 2 476
1 1 2 477
1 1 6 806
1 2 0 314 5 554
1 1 2 380
1 2 2 555 3 555
